results/x-long/X-n143-k7.vrp_seed-12.out
15718	1033
