results/x-long/X-n143-k7.vrp_seed-12.vrp.sol
Route #1: 68 84 127 13 126
Route #2: 25 36 16 32 7 19 97 120 85 35 91 83 28 133 18 90 61 45 89 12 54 118 128
Route #3: 56 142 55 137 14 37 122 77 22 119 80 39 29 42 131 69 140 141 15 27 106 24 99
Route #4: 78 2 41 86 8 43 114 110 53 102 6 31 98 79 60 72 111 1 107 5 93 17 116 136
Route #5: 130 71 73 57 95 139 82 123 125 33 21 23 132 104 62 96 47 81 100 11 74 44 64 65
Route #6: 4 48 87 30 121 34 138 105 129 76 3 94 75 26 112 63 113 10 103 38 134 92 108 117
Route #7: 115 124 70 40 59 135 58 67 46 101 66 20 52 88 51 49 50 9 109
Cost 15718.000000